c uprop, v00.0, 
c reading from data/prog506.c.cnf
c done reading: 0.003379
p cnf 133 602
-44 -64 0
44 64 0
-56 -58 0
56 58 0
-49 -54 0
49 54 0
-47 -61 0
47 61 0
-42 -51 0
42 51 0
-37 -39 0
37 39 0
60 -64 0
-60 64 0
-60 64 -67 0
-60 -67 0
60 -64 67 0
60 67 0
-58 -64 68 0
-58 -60 68 0
-60 -64 68 0
58 64 -68 0
58 60 -68 0
60 64 -68 0
58 -68 -69 0
64 -68 -69 0
60 -68 -69 0
-58 68 69 0
-64 68 69 0
-60 68 69 0
-58 -60 -64 69 0
58 60 64 -69 0
-54 -58 70 0
-54 -68 70 0
-58 -68 70 0
54 58 -70 0
54 68 -70 0
58 68 -70 0
54 -70 -71 0
58 -70 -71 0
68 -70 -71 0
-54 70 71 0
-58 70 71 0
-68 70 71 0
-54 -58 -68 71 0
54 58 68 -71 0
-47 -54 72 0
-47 -70 72 0
-54 -70 72 0
47 54 -72 0
47 70 -72 0
54 70 -72 0
47 -72 -73 0
54 -72 -73 0
70 -72 -73 0
-47 72 73 0
-54 72 73 0
-70 72 73 0
-47 -54 -70 73 0
47 54 70 -73 0
-42 -47 74 0
-42 -72 74 0
-47 -72 74 0
42 47 -74 0
42 72 -74 0
47 72 -74 0
42 -74 -75 0
47 -74 -75 0
72 -74 -75 0
-42 74 75 0
-47 74 75 0
-72 74 75 0
-42 -47 -72 75 0
42 47 72 -75 0
-37 -42 76 0
-37 -74 76 0
-42 -74 76 0
37 42 -76 0
37 74 -76 0
42 74 -76 0
37 -76 -77 0
42 -76 -77 0
74 -76 -77 0
-37 76 77 0
-42 76 77 0
-74 76 77 0
-37 -42 -74 77 0
37 42 74 -77 0
37 -66 0
-66 76 0
-37 66 -76 0
-37 -63 -76 0
37 -63 76 0
-37 63 76 0
37 63 -76 0
-53 67 0
53 -67 0
46 -69 0
-46 69 0
-41 -46 69 0
-41 -46 0
41 46 -69 0
41 46 0
36 -64 -71 0
36 -46 -71 0
36 -46 -64 0
-36 64 71 0
-36 46 71 0
-36 46 64 0
-35 -36 71 0
-35 -36 64 0
-35 -36 46 0
35 36 -71 0
35 36 -64 0
35 36 -46 0
35 -46 -64 -71 0
-35 46 64 71 0
34 -58 -73 0
34 -36 -73 0
34 -36 -58 0
-34 58 73 0
-34 36 73 0
-34 36 58 0
-33 -34 73 0
-33 -34 58 0
-33 -34 36 0
33 34 -73 0
33 34 -58 0
33 34 -36 0
33 -36 -58 -73 0
-33 36 58 73 0
32 -54 -75 0
32 -34 -75 0
32 -34 -54 0
-32 54 75 0
-32 34 75 0
-32 34 54 0
-31 -32 75 0
-31 -32 54 0
-31 -32 34 0
31 32 -75 0
31 32 -54 0
31 32 -34 0
31 -34 -54 -75 0
-31 34 54 75 0
30 -47 -77 0
30 -32 -77 0
30 -32 -47 0
-30 47 77 0
-30 32 77 0
-30 32 47 0
-29 -30 77 0
-29 -30 47 0
-29 -30 32 0
29 30 -77 0
29 30 -47 0
29 30 -32 0
29 -32 -47 -77 0
-29 32 47 77 0
28 -42 -63 0
28 -30 -63 0
28 -30 -42 0
-28 42 63 0
-28 30 63 0
-28 30 42 0
-27 -28 63 0
-27 -28 42 0
-27 -28 30 0
27 28 -63 0
27 28 -42 0
27 28 -30 0
27 -30 -42 -63 0
-27 30 42 63 0
26 -37 -66 0
26 -28 -66 0
26 -28 -37 0
-26 37 66 0
-26 28 66 0
-26 28 37 0
-25 -26 66 0
-25 -26 37 0
-25 -26 28 0
25 26 -66 0
25 26 -37 0
25 26 -28 0
25 -28 -37 -66 0
-25 28 37 66 0
-24 35 0
24 -35 0
23 -33 0
-23 33 0
-22 -23 33 0
-22 -23 0
22 23 -33 0
22 23 0
21 -31 -64 0
21 -23 -31 0
21 -23 -64 0
-21 31 64 0
-21 23 31 0
-21 23 64 0
-20 -21 31 0
-20 -21 64 0
-20 -21 23 0
20 21 -31 0
20 21 -64 0
20 21 -23 0
20 -23 -31 -64 0
-20 23 31 64 0
19 -29 -58 0
19 -21 -29 0
19 -21 -58 0
-19 29 58 0
-19 21 29 0
-19 21 58 0
-18 -19 29 0
-18 -19 58 0
-18 -19 21 0
18 19 -29 0
18 19 -58 0
18 19 -21 0
18 -21 -29 -58 0
-18 21 29 58 0
17 -27 -54 0
17 -19 -27 0
17 -19 -54 0
-17 27 54 0
-17 19 27 0
-17 19 54 0
-16 -17 27 0
-16 -17 54 0
-16 -17 19 0
16 17 -27 0
16 17 -54 0
16 17 -19 0
16 -19 -27 -54 0
-16 19 27 54 0
15 -25 -47 0
15 -17 -25 0
15 -17 -47 0
-15 25 47 0
-15 17 25 0
-15 17 47 0
-14 -15 25 0
-14 -15 47 0
-14 -15 17 0
14 15 -25 0
14 15 -47 0
14 15 -17 0
14 -17 -25 -47 0
-14 17 25 47 0
13 -26 -42 0
13 -15 -26 0
13 -15 -42 0
-13 26 42 0
-13 15 26 0
-13 15 42 0
-12 -13 26 0
-12 -13 42 0
-12 -13 15 0
12 13 -26 0
12 13 -42 0
12 13 -15 0
12 -15 -26 -42 0
-12 15 26 42 0
-11 37 0
-11 13 0
11 -13 -37 0
-10 -13 -37 0
-10 13 37 0
10 13 -37 0
10 -13 37 0
-9 -53 0
9 53 0
-8 -41 0
8 41 0
-7 -24 0
7 24 0
-22 -78 0
22 78 0
-20 -79 0
20 79 0
-18 -80 0
18 80 0
-16 -81 0
16 81 0
-14 -82 0
14 82 0
-12 -83 0
12 83 0
-10 -84 0
10 84 0
-11 -85 0
11 85 0
-86 -88 0
-88 -89 0
86 88 89 0
86 89 -91 0
-86 -89 -91 0
-86 89 91 0
86 -89 91 0
88 -92 0
-92 -93 0
-88 92 93 0
-88 93 -95 0
88 -93 -95 0
88 93 95 0
-88 -93 95 0
92 -96 0
-96 -97 0
-92 96 97 0
-92 97 -99 0
92 -97 -99 0
92 97 99 0
-92 -97 99 0
96 -100 0
-100 -101 0
-96 100 101 0
-96 101 -103 0
96 -101 -103 0
96 101 103 0
-96 -101 103 0
100 -104 0
-104 -105 0
-100 104 105 0
-100 105 -107 0
100 -105 -107 0
100 105 107 0
-100 -105 107 0
104 -108 0
-108 -109 0
-104 108 109 0
-65 -104 109 0
-65 104 -109 0
65 104 109 0
65 -104 -109 0
-59 108 0
-59 -111 0
59 -108 111 0
-55 -108 111 0
-55 108 -111 0
55 108 111 0
55 -108 -111 0
-48 89 0
-48 86 0
48 -86 -89 0
-43 -86 -89 0
-43 86 89 0
43 86 -89 0
43 -86 89 0
38 -89 -93 0
38 -48 -93 0
38 -48 -89 0
-38 89 93 0
-38 48 93 0
-38 48 89 0
-38 -87 93 0
-38 -87 89 0
-38 48 -87 0
38 87 -93 0
38 87 -89 0
38 -48 87 0
-48 87 -89 -93 0
48 -87 89 93 0
90 -93 -97 0
-38 90 -97 0
-38 90 -93 0
-90 93 97 0
38 -90 97 0
38 -90 93 0
-90 -94 97 0
-90 93 -94 0
38 -90 -94 0
90 94 -97 0
90 -93 94 0
-38 90 94 0
-38 -93 94 -97 0
38 93 -94 97 0
-97 98 -101 0
-90 98 -101 0
-90 -97 98 0
97 -98 101 0
90 -98 101 0
90 97 -98 0
-98 101 -102 0
97 -98 -102 0
90 -98 -102 0
98 -101 102 0
-97 98 102 0
-90 98 102 0
-90 -97 -101 102 0
90 97 101 -102 0
-101 -105 106 0
-98 -105 106 0
-98 -101 106 0
101 105 -106 0
98 105 -106 0
98 101 -106 0
105 -106 -110 0
101 -106 -110 0
98 -106 -110 0
-105 106 110 0
-101 106 110 0
-98 106 110 0
-98 -101 -105 110 0
98 101 105 -110 0
-105 -109 112 0
-106 -109 112 0
-105 -106 112 0
105 109 -112 0
106 109 -112 0
105 106 -112 0
109 -112 -113 0
105 -112 -113 0
106 -112 -113 0
-109 112 113 0
-105 112 113 0
-106 112 113 0
-105 -106 -109 113 0
105 106 109 -113 0
-109 -111 114 0
-111 -112 114 0
-109 -112 114 0
109 111 -114 0
111 112 -114 0
109 112 -114 0
111 -114 -115 0
109 -114 -115 0
112 -114 -115 0
-111 114 115 0
-109 114 115 0
-112 114 115 0
-109 -111 -112 115 0
109 111 112 -115 0
111 -116 0
114 -116 0
-111 -114 116 0
-111 -114 -117 0
111 114 -117 0
-111 114 117 0
111 -114 117 0
-86 -118 0
-43 -118 0
43 86 118 0
43 86 -119 0
-43 -86 -119 0
43 -86 119 0
-43 86 119 0
118 -120 0
-87 -120 0
87 -118 120 0
87 -118 -121 0
-87 118 -121 0
87 118 121 0
-87 -118 121 0
120 -122 0
-94 -122 0
94 -120 122 0
94 -120 -123 0
-94 120 -123 0
94 120 123 0
-94 -120 123 0
122 -124 0
-102 -124 0
102 -122 124 0
102 -122 -125 0
-102 122 -125 0
102 122 125 0
-102 -122 125 0
124 -126 0
-110 -126 0
110 -124 126 0
110 -124 -127 0
-110 124 -127 0
110 124 127 0
-110 -124 127 0
126 -128 0
-113 -128 0
113 -126 128 0
113 -126 -129 0
-113 126 -129 0
113 126 129 0
-113 -126 129 0
128 -130 0
-115 -130 0
115 -128 130 0
115 -128 -131 0
-115 128 -131 0
115 128 131 0
-115 -128 131 0
-45 130 0
-45 -117 0
45 117 -130 0
117 -130 -132 0
-117 130 -132 0
117 130 132 0
-117 -130 132 0
45 -57 0
-57 -116 0
-45 57 116 0
-45 116 -133 0
45 -116 -133 0
45 116 133 0
-45 -116 133 0
-50 53 0
-50 86 0
50 -53 -86 0
-53 86 0
53 -86 0
-41 -43 62 0
-41 -50 62 0
-43 -50 62 0
41 43 -62 0
41 50 -62 0
43 50 -62 0
-41 62 0
-43 62 0
-50 62 0
-41 -43 -50 0
-24 52 -87 0
-24 52 -62 0
52 -62 -87 0
24 -52 87 0
24 -52 62 0
-52 62 87 0
-24 52 0
52 -87 0
52 -62 0
-24 -62 -87 0
-22 40 -94 0
-22 40 -52 0
40 -52 -94 0
22 -40 94 0
22 -40 52 0
-40 52 94 0
-22 40 0
40 -94 0
40 -52 0
-22 -52 -94 0
6 -20 -102 0
6 -20 -40 0
6 -40 -102 0
-6 20 102 0
-6 20 40 0
-6 40 102 0
-6 20 0
-6 102 0
-6 40 0
20 40 102 0
5 -18 -110 0
5 -6 -18 0
5 -6 -110 0
-5 18 110 0
-5 6 18 0
-5 6 110 0
5 -18 0
5 -110 0
5 -6 0
-6 -18 -110 0
4 -16 -113 0
4 -5 -16 0
4 -5 -113 0
-4 16 113 0
-4 5 16 0
-4 5 113 0
4 -16 0
4 -113 0
4 -5 0
-5 -16 -113 0
3 -14 -115 0
3 -4 -14 0
3 -4 -115 0
-3 14 115 0
-3 4 14 0
-3 4 115 0
3 -14 0
3 -115 0
3 -4 0
-4 -14 -115 0
2 -12 -117 0
2 -3 -12 0
2 -3 -117 0
-2 12 117 0
-2 3 12 0
-2 3 117 0
2 -12 0
2 -117 0
2 -3 0
-3 -12 -117 0
1 -10 -116 0
1 -2 -10 0
1 -2 -116 0
-1 10 116 0
-1 2 10 0
-1 2 116 0
1 -10 0
1 -116 0
1 -2 0
-2 -10 -116 0
-1 -11 0
1 -11 0
-1 11 0
